50
24975

820 332
419 580
979 67
110 121
963 884
538 901
236 774
319 66
508 220
408 303
558 628
594 534
495 715
949 417
292 639
116 356
380 277
78 153
881 880
954 555
831 213
886 46
846 219
432 58
574 330
999 155
959 298
464 953
143 502
826 187
230 168
409 54
326 15
191 928
100 635
451 239
835 973
559 474
636 237
32 763
806 915
467 453
887 189
971 223
753 139
690 953
854 920
380 974
52 73
287 746
